
******************************************************************************
This program contains Ipopt, a library for large-scale nonlinear optimization.
 Ipopt is released as open source code under the Eclipse Public License (EPL).
         For more information visit http://projects.coin-or.org/Ipopt

This version of Ipopt was compiled from source code available at
    https://github.com/IDAES/Ipopt as part of the Institute for the Design of
    Advanced Energy Systems Process Systems Engineering Framework (IDAES PSE
    Framework) Copyright (c) 2018-2019. See https://github.com/IDAES/idaes-pse.

This version of Ipopt was compiled using HSL, a collection of Fortran codes
    for large-scale scientific computation.  All technical papers, sales and
    publicity material resulting from use of the HSL codes within IPOPT must
    contain the following acknowledgement:
        HSL, a collection of Fortran codes for large-scale scientific
        computation. See http://www.hsl.rl.ac.uk.
******************************************************************************

This is Ipopt version 3.13.2, running with linear solver ma27.

Number of nonzeros in equality constraint Jacobian...:      808
Number of nonzeros in inequality constraint Jacobian.:        0
Number of nonzeros in Lagrangian Hessian.............:      702

Total number of variables............................:      351
                     variables with only lower bounds:      108
                variables with lower and upper bounds:      189
                     variables with only upper bounds:        0
Total number of equality constraints.................:      350
Total number of inequality constraints...............:        0
        inequality constraints with only lower bounds:        0
   inequality constraints with lower and upper bounds:        0
        inequality constraints with only upper bounds:        0

iter    objective    inf_pr   inf_du lg(mu)  ||d||  lg(rg) alpha_du alpha_pr  ls
   0  0.0000000e+00 8.15e-01 2.66e-15  -1.0 0.00e+00    -  0.00e+00 0.00e+00   0
   1  2.0249858e+00 1.47e+00 9.55e+04  -1.0 1.27e+05    -  5.46e-01 7.61e-01h  1
   2  2.0546775e+00 1.43e+00 9.23e+04  -1.0 3.37e+04    -  8.14e-01 2.43e-02h  1
   3  2.2497517e+00 1.25e+00 8.20e+04  -1.0 1.63e+05    -  8.24e-01 1.14e-01h  1
   4  5.4717763e+00 2.21e-01 3.46e+04  -1.0 1.48e+05    -  6.42e-01 5.63e-01h  1
   5  8.0080204e+00 1.15e-01 1.81e+04  -1.0 7.40e+04    -  5.36e-02 4.77e-01h  1
   6  1.1758003e+01 1.37e-03 8.90e+02  -1.0 4.09e+04    -  9.51e-01 9.90e-01h  1
   7  1.1896086e+01 1.49e-05 1.61e+03  -1.0 1.33e+03    -  9.14e-01 9.90e-01h  1
   8  1.2000990e+01 5.22e-06 1.33e+06  -1.0 9.99e+02    -  3.62e-01 9.90e-01H  1
   9  1.2002592e+01 5.21e-06 1.45e+08  -1.0 1.95e+03    -  6.99e-01 7.73e-03h  8
iter    objective    inf_pr   inf_du lg(mu)  ||d||  lg(rg) alpha_du alpha_pr  ls
  10  1.2003240e+01 5.20e-06 2.34e+08  -1.0 3.15e+03    -  4.21e-01 1.93e-03h 10
  11  1.2003778e+01 5.20e-06 3.32e+08  -1.0 5.23e+03    -  4.57e-01 9.67e-04h 11
  12  1.2004276e+01 5.20e-06 4.02e+08  -1.0 4.83e+03    -  3.28e-01 9.67e-04h 11
  13  1.2004625e+01 5.20e-06 4.85e+08  -1.0 6.78e+03    -  3.92e-01 4.83e-04h 12
  14  1.2005206e+01 5.20e-06 5.49e+08  -1.0 5.64e+03    -  2.98e-01 9.67e-04h 11
  15  1.2005592e+01 5.20e-06 6.27e+08  -1.0 7.51e+03    -  3.69e-01 4.83e-04h 12
  16  1.2006213e+01 5.20e-06 6.88e+08  -1.0 6.03e+03    -  2.86e-01 9.67e-04h 11
  17  1.2006415e+01 5.20e-06 7.65e+08  -1.0 7.86e+03    -  3.61e-01 2.42e-04h 13
  18  1.2006735e+01 5.19e-06 8.25e+08  -1.0 6.21e+03    -  2.81e-01 4.83e-04h 12
  19  1.2873482e+01 6.53e-03 1.28e+08  -1.0 8.02e+03    -  3.57e-01 9.90e-01w  1
iter    objective    inf_pr   inf_du lg(mu)  ||d||  lg(rg) alpha_du alpha_pr  ls
  20  1.2760311e+01 2.56e-05 1.84e+07  -1.0 1.03e+03    -  9.91e-01 9.90e-01w  1
  21  1.2759011e+01 2.59e-07 2.15e+10  -1.0 1.18e+01    -  1.00e+00 9.90e-01h  1
In iteration 21, 27 Slacks too small, adjusting variable bounds
  22  1.2758995e+01 2.60e-09 2.15e+12  -1.0 1.43e-01    -  1.00e+00 9.90e-01h  1
  23  1.2758995e+01 1.61e-10 1.39e-02  -1.0 1.44e-03    -  1.00e+00 1.00e+00h  1
  24  1.2758559e+01 1.52e-09 2.18e+12  -9.0 9.70e+03    -  9.95e-01 4.04e-04f 12
  25  1.2758341e+01 1.81e-09 2.19e+12  -9.0 9.76e+03    -  9.95e-01 2.01e-04f 13
  26  1.2758123e+01 2.17e-09 2.19e+12  -9.0 9.60e+03    -  1.00e+00 2.04e-04f 13
  27  1.2757905e+01 2.53e-09 2.19e+12  -9.0 9.43e+03    -  1.00e+00 2.08e-04f 13
  28  1.2757797e+01 2.62e-09 2.19e+12  -9.0 9.27e+03    -  1.00e+00 1.06e-04f 14
  29  1.1887377e+01 8.38e-03 2.61e+11  -9.0 9.11e+03    -  1.00e+00 8.81e-01f  1
iter    objective    inf_pr   inf_du lg(mu)  ||d||  lg(rg) alpha_du alpha_pr  ls
  30  1.1882862e+01 2.23e-05 7.71e-01  -9.0 4.35e+01    -  7.38e-01 1.00e+00h  1
  31  1.1882863e+01 1.18e-08 9.05e-04  -9.0 8.61e-04    -  1.00e+00 1.00e+00h  1
  32  1.1882863e+01 6.32e-08 5.72e-12  -9.0 3.98e-07    -  1.00e+00 1.00e+00H  1
  33  1.1882863e+01 4.36e-08 1.08e-11  -9.0 2.14e-06    -  1.00e+00 1.00e+00H  1
  34  1.1882863e+01 1.17e-08 8.74e-12  -9.0 1.48e-06    -  1.00e+00 1.00e+00h  1
  35  1.1882863e+01 1.20e-08 8.74e-12  -9.0 3.97e-07    -  1.00e+00 2.44e-04h 13
  36  1.1882863e+01 1.21e-08 8.74e-12  -9.0 4.08e-07    -  1.00e+00 6.10e-05h 15
  37  1.1882863e+01 1.22e-08 8.74e-12  -9.0 4.11e-07    -  1.00e+00 3.05e-05h 16
  38  1.1882863e+01 1.22e-08 8.74e-12  -9.0 4.12e-07    -  1.00e+00 1.53e-05h 17
  39  1.1882863e+01 1.22e-08 8.74e-12  -9.0 4.13e-07    -  1.00e+00 3.81e-06h 19
iter    objective    inf_pr   inf_du lg(mu)  ||d||  lg(rg) alpha_du alpha_pr  ls
  40  1.1882863e+01 6.48e-08 1.09e-11  -9.0 4.13e-07    -  1.00e+00 1.00e+00h  1
  41  1.1882863e+01 1.12e-08 3.64e-12  -9.0 2.20e-06    -  1.00e+00 5.00e-01h  2
  42  1.1882863e+01 5.05e-08 3.64e-12  -9.0 3.81e-07    -  1.00e+00 3.12e-02h  6
  43  1.1882863e+01 5.29e-08 3.64e-12  -9.0 1.71e-06    -  1.00e+00 1.00e+00h  1
  44  1.1882863e+01 5.12e-09 7.28e-12  -9.0 1.79e-06    -  1.00e+00 1.00e+00h  1

Number of Iterations....: 44

                                   (scaled)                 (unscaled)
Objective...............:   1.1882862518885940e+01    1.1882862518885940e+01
Dual infeasibility......:   7.2759576141834259e-12    7.2759576141834259e-12
Constraint violation....:   5.1183974836277457e-09    5.1183974836277457e-09
Complementarity.........:   9.0909090909091530e-10    9.0909090909091530e-10
Overall NLP error.......:   5.1183974836277457e-09    5.1183974836277457e-09


Number of objective function evaluations             = 350
Number of objective gradient evaluations             = 45
Number of equality constraint evaluations            = 350
Number of inequality constraint evaluations          = 0
Number of equality constraint Jacobian evaluations   = 45
Number of inequality constraint Jacobian evaluations = 0
Number of Lagrangian Hessian evaluations             = 44
Total CPU secs in IPOPT (w/o function evaluations)   =      0.098
Total CPU secs in NLP function evaluations           =      2.512

EXIT: Optimal Solution Found.
